c ---- VARIABLES ---- 
c 1 	 == EMPTY(0,0)
c 2 	 == EMPTY(1,0)
c 3 	 == EMPTY(2,0)
c 4 	 == EMPTY(0,1)
c 5 	 == EMPTY(1,1)
c 6 	 == EMPTY(2,1)
c 7 	 == EMPTY(0,2)
c 8 	 == EMPTY(1,2)
c 9 	 == EMPTY(2,2)
c 10 	 == A(0,0)
c 11 	 == A(1,0)
c 12 	 == A(2,0)
c 13 	 == A(0,1)
c 14 	 == A(1,1)
c 15 	 == A(2,1)
c 16 	 == A(0,2)
c 17 	 == A(1,2)
c 18 	 == A(2,2)
c 19 	 == B(0,0)
c 20 	 == B(1,0)
c 21 	 == B(2,0)
c 22 	 == B(0,1)
c 23 	 == B(1,1)
c 24 	 == B(2,1)
c 25 	 == B(0,2)
c 26 	 == B(1,2)
c 27 	 == B(2,2)
c 28 	 == C(0,0)
c 29 	 == C(1,0)
c 30 	 == C(2,0)
c 31 	 == C(0,1)
c 32 	 == C(1,1)
c 33 	 == C(2,1)
c 34 	 == C(0,2)
c 35 	 == C(1,2)
c 36 	 == C(2,2)
c ------------------- 
p cnf 36 108
10 11 12 0
-10 -11 0
-10 -12 0
-11 -12 0
10 13 16 0
-10 -13 0
-10 -16 0
-13 -16 0
13 14 15 0
-13 -14 0
-13 -15 0
-14 -15 0
11 14 17 0
-11 -14 0
-11 -17 0
-14 -17 0
16 17 18 0
-16 -17 0
-16 -18 0
-17 -18 0
12 15 18 0
-12 -15 0
-12 -18 0
-15 -18 0
19 20 21 0
-19 -20 0
-19 -21 0
-20 -21 0
19 22 25 0
-19 -22 0
-19 -25 0
-22 -25 0
22 23 24 0
-22 -23 0
-22 -24 0
-23 -24 0
20 23 26 0
-20 -23 0
-20 -26 0
-23 -26 0
25 26 27 0
-25 -26 0
-25 -27 0
-26 -27 0
21 24 27 0
-21 -24 0
-21 -27 0
-24 -27 0
28 29 30 0
-28 -29 0
-28 -30 0
-29 -30 0
28 31 34 0
-28 -31 0
-28 -34 0
-31 -34 0
31 32 33 0
-31 -32 0
-31 -33 0
-32 -33 0
29 32 35 0
-29 -32 0
-29 -35 0
-32 -35 0
34 35 36 0
-34 -35 0
-34 -36 0
-35 -36 0
30 33 36 0
-30 -33 0
-30 -36 0
-33 -36 0
10 19 28 0
-10 -19 0
-10 -28 0
-19 -28 0
13 22 31 0
-13 -22 0
-13 -31 0
-22 -31 0
16 25 34 0
-16 -25 0
-16 -34 0
-25 -34 0
11 20 29 0
-11 -20 0
-11 -29 0
-20 -29 0
14 23 32 0
-14 -23 0
-14 -32 0
-23 -32 0
17 26 35 0
-17 -26 0
-17 -35 0
-26 -35 0
12 21 30 0
-12 -21 0
-12 -30 0
-21 -30 0
15 24 33 0
-15 -24 0
-15 -33 0
-24 -33 0
18 27 36 0
-18 -27 0
-18 -36 0
-27 -36 0
