c ---- VARIABLES ---- 
c 1 	 == _(0,0)
c 2 	 == _(1,0)
c 3 	 == _(2,0)
c 4 	 == _(3,0)
c 5 	 == _(4,0)
c 6 	 == _(0,1)
c 7 	 == _(1,1)
c 8 	 == _(2,1)
c 9 	 == _(3,1)
c 10 	 == _(4,1)
c 11 	 == _(0,2)
c 12 	 == _(1,2)
c 13 	 == _(2,2)
c 14 	 == _(3,2)
c 15 	 == _(4,2)
c 16 	 == _(0,3)
c 17 	 == _(1,3)
c 18 	 == _(2,3)
c 19 	 == _(3,3)
c 20 	 == _(4,3)
c 21 	 == _(0,4)
c 22 	 == _(1,4)
c 23 	 == _(2,4)
c 24 	 == _(3,4)
c 25 	 == _(4,4)
c 26 	 == A(0,0)
c 27 	 == A(1,0)
c 28 	 == A(2,0)
c 29 	 == A(3,0)
c 30 	 == A(4,0)
c 31 	 == A(0,1)
c 32 	 == A(1,1)
c 33 	 == A(2,1)
c 34 	 == A(3,1)
c 35 	 == A(4,1)
c 36 	 == A(0,2)
c 37 	 == A(1,2)
c 38 	 == A(2,2)
c 39 	 == A(3,2)
c 40 	 == A(4,2)
c 41 	 == A(0,3)
c 42 	 == A(1,3)
c 43 	 == A(2,3)
c 44 	 == A(3,3)
c 45 	 == A(4,3)
c 46 	 == A(0,4)
c 47 	 == A(1,4)
c 48 	 == A(2,4)
c 49 	 == A(3,4)
c 50 	 == A(4,4)
c 51 	 == B(0,0)
c 52 	 == B(1,0)
c 53 	 == B(2,0)
c 54 	 == B(3,0)
c 55 	 == B(4,0)
c 56 	 == B(0,1)
c 57 	 == B(1,1)
c 58 	 == B(2,1)
c 59 	 == B(3,1)
c 60 	 == B(4,1)
c 61 	 == B(0,2)
c 62 	 == B(1,2)
c 63 	 == B(2,2)
c 64 	 == B(3,2)
c 65 	 == B(4,2)
c 66 	 == B(0,3)
c 67 	 == B(1,3)
c 68 	 == B(2,3)
c 69 	 == B(3,3)
c 70 	 == B(4,3)
c 71 	 == B(0,4)
c 72 	 == B(1,4)
c 73 	 == B(2,4)
c 74 	 == B(3,4)
c 75 	 == B(4,4)
c 76 	 == C(0,0)
c 77 	 == C(1,0)
c 78 	 == C(2,0)
c 79 	 == C(3,0)
c 80 	 == C(4,0)
c 81 	 == C(0,1)
c 82 	 == C(1,1)
c 83 	 == C(2,1)
c 84 	 == C(3,1)
c 85 	 == C(4,1)
c 86 	 == C(0,2)
c 87 	 == C(1,2)
c 88 	 == C(2,2)
c 89 	 == C(3,2)
c 90 	 == C(4,2)
c 91 	 == C(0,3)
c 92 	 == C(1,3)
c 93 	 == C(2,3)
c 94 	 == C(3,3)
c 95 	 == C(4,3)
c 96 	 == C(0,4)
c 97 	 == C(1,4)
c 98 	 == C(2,4)
c 99 	 == C(3,4)
c 100 	 == C(4,4)
c 101 	 == D(0,0)
c 102 	 == D(1,0)
c 103 	 == D(2,0)
c 104 	 == D(3,0)
c 105 	 == D(4,0)
c 106 	 == D(0,1)
c 107 	 == D(1,1)
c 108 	 == D(2,1)
c 109 	 == D(3,1)
c 110 	 == D(4,1)
c 111 	 == D(0,2)
c 112 	 == D(1,2)
c 113 	 == D(2,2)
c 114 	 == D(3,2)
c 115 	 == D(4,2)
c 116 	 == D(0,3)
c 117 	 == D(1,3)
c 118 	 == D(2,3)
c 119 	 == D(3,3)
c 120 	 == D(4,3)
c 121 	 == D(0,4)
c 122 	 == D(1,4)
c 123 	 == D(2,4)
c 124 	 == D(3,4)
c 125 	 == D(4,4)
c 126 	 == E(0,0)
c 127 	 == E(1,0)
c 128 	 == E(2,0)
c 129 	 == E(3,0)
c 130 	 == E(4,0)
c 131 	 == E(0,1)
c 132 	 == E(1,1)
c 133 	 == E(2,1)
c 134 	 == E(3,1)
c 135 	 == E(4,1)
c 136 	 == E(0,2)
c 137 	 == E(1,2)
c 138 	 == E(2,2)
c 139 	 == E(3,2)
c 140 	 == E(4,2)
c 141 	 == E(0,3)
c 142 	 == E(1,3)
c 143 	 == E(2,3)
c 144 	 == E(3,3)
c 145 	 == E(4,3)
c 146 	 == E(0,4)
c 147 	 == E(1,4)
c 148 	 == E(2,4)
c 149 	 == E(3,4)
c 150 	 == E(4,4)
c ------------------- 
p cnf 100 505
26 27 28 29 30 0
-26 -27 0
-26 -28 0
-26 -29 0
-26 -30 0
-27 -28 0
-27 -29 0
-27 -30 0
-28 -29 0
-28 -30 0
-29 -30 0
26 31 36 41 46 0
-26 -31 0
-26 -36 0
-26 -41 0
-26 -46 0
-31 -36 0
-31 -41 0
-31 -46 0
-36 -41 0
-36 -46 0
-41 -46 0
31 32 33 34 35 0
-31 -32 0
-31 -33 0
-31 -34 0
-31 -35 0
-32 -33 0
-32 -34 0
-32 -35 0
-33 -34 0
-33 -35 0
-34 -35 0
27 32 37 42 47 0
-27 -32 0
-27 -37 0
-27 -42 0
-27 -47 0
-32 -37 0
-32 -42 0
-32 -47 0
-37 -42 0
-37 -47 0
-42 -47 0
36 37 38 39 40 0
-36 -37 0
-36 -38 0
-36 -39 0
-36 -40 0
-37 -38 0
-37 -39 0
-37 -40 0
-38 -39 0
-38 -40 0
-39 -40 0
28 33 38 43 48 0
-28 -33 0
-28 -38 0
-28 -43 0
-28 -48 0
-33 -38 0
-33 -43 0
-33 -48 0
-38 -43 0
-38 -48 0
-43 -48 0
41 42 43 44 45 0
-41 -42 0
-41 -43 0
-41 -44 0
-41 -45 0
-42 -43 0
-42 -44 0
-42 -45 0
-43 -44 0
-43 -45 0
-44 -45 0
29 34 39 44 49 0
-29 -34 0
-29 -39 0
-29 -44 0
-29 -49 0
-34 -39 0
-34 -44 0
-34 -49 0
-39 -44 0
-39 -49 0
-44 -49 0
46 47 48 49 50 0
-46 -47 0
-46 -48 0
-46 -49 0
-46 -50 0
-47 -48 0
-47 -49 0
-47 -50 0
-48 -49 0
-48 -50 0
-49 -50 0
30 35 40 45 50 0
-30 -35 0
-30 -40 0
-30 -45 0
-30 -50 0
-35 -40 0
-35 -45 0
-35 -50 0
-40 -45 0
-40 -50 0
-45 -50 0
51 52 53 54 55 0
-51 -52 0
-51 -53 0
-51 -54 0
-51 -55 0
-52 -53 0
-52 -54 0
-52 -55 0
-53 -54 0
-53 -55 0
-54 -55 0
51 56 61 66 71 0
-51 -56 0
-51 -61 0
-51 -66 0
-51 -71 0
-56 -61 0
-56 -66 0
-56 -71 0
-61 -66 0
-61 -71 0
-66 -71 0
56 57 58 59 60 0
-56 -57 0
-56 -58 0
-56 -59 0
-56 -60 0
-57 -58 0
-57 -59 0
-57 -60 0
-58 -59 0
-58 -60 0
-59 -60 0
52 57 62 67 72 0
-52 -57 0
-52 -62 0
-52 -67 0
-52 -72 0
-57 -62 0
-57 -67 0
-57 -72 0
-62 -67 0
-62 -72 0
-67 -72 0
61 62 63 64 65 0
-61 -62 0
-61 -63 0
-61 -64 0
-61 -65 0
-62 -63 0
-62 -64 0
-62 -65 0
-63 -64 0
-63 -65 0
-64 -65 0
53 58 63 68 73 0
-53 -58 0
-53 -63 0
-53 -68 0
-53 -73 0
-58 -63 0
-58 -68 0
-58 -73 0
-63 -68 0
-63 -73 0
-68 -73 0
66 67 68 69 70 0
-66 -67 0
-66 -68 0
-66 -69 0
-66 -70 0
-67 -68 0
-67 -69 0
-67 -70 0
-68 -69 0
-68 -70 0
-69 -70 0
54 59 64 69 74 0
-54 -59 0
-54 -64 0
-54 -69 0
-54 -74 0
-59 -64 0
-59 -69 0
-59 -74 0
-64 -69 0
-64 -74 0
-69 -74 0
71 72 73 74 75 0
-71 -72 0
-71 -73 0
-71 -74 0
-71 -75 0
-72 -73 0
-72 -74 0
-72 -75 0
-73 -74 0
-73 -75 0
-74 -75 0
55 60 65 70 75 0
-55 -60 0
-55 -65 0
-55 -70 0
-55 -75 0
-60 -65 0
-60 -70 0
-60 -75 0
-65 -70 0
-65 -75 0
-70 -75 0
76 77 78 79 80 0
-76 -77 0
-76 -78 0
-76 -79 0
-76 -80 0
-77 -78 0
-77 -79 0
-77 -80 0
-78 -79 0
-78 -80 0
-79 -80 0
76 81 86 91 96 0
-76 -81 0
-76 -86 0
-76 -91 0
-76 -96 0
-81 -86 0
-81 -91 0
-81 -96 0
-86 -91 0
-86 -96 0
-91 -96 0
81 82 83 84 85 0
-81 -82 0
-81 -83 0
-81 -84 0
-81 -85 0
-82 -83 0
-82 -84 0
-82 -85 0
-83 -84 0
-83 -85 0
-84 -85 0
77 82 87 92 97 0
-77 -82 0
-77 -87 0
-77 -92 0
-77 -97 0
-82 -87 0
-82 -92 0
-82 -97 0
-87 -92 0
-87 -97 0
-92 -97 0
86 87 88 89 90 0
-86 -87 0
-86 -88 0
-86 -89 0
-86 -90 0
-87 -88 0
-87 -89 0
-87 -90 0
-88 -89 0
-88 -90 0
-89 -90 0
78 83 88 93 98 0
-78 -83 0
-78 -88 0
-78 -93 0
-78 -98 0
-83 -88 0
-83 -93 0
-83 -98 0
-88 -93 0
-88 -98 0
-93 -98 0
91 92 93 94 95 0
-91 -92 0
-91 -93 0
-91 -94 0
-91 -95 0
-92 -93 0
-92 -94 0
-92 -95 0
-93 -94 0
-93 -95 0
-94 -95 0
79 84 89 94 99 0
-79 -84 0
-79 -89 0
-79 -94 0
-79 -99 0
-84 -89 0
-84 -94 0
-84 -99 0
-89 -94 0
-89 -99 0
-94 -99 0
96 97 98 99 100 0
-96 -97 0
-96 -98 0
-96 -99 0
-96 -100 0
-97 -98 0
-97 -99 0
-97 -100 0
-98 -99 0
-98 -100 0
-99 -100 0
80 85 90 95 100 0
-80 -85 0
-80 -90 0
-80 -95 0
-80 -100 0
-85 -90 0
-85 -95 0
-85 -100 0
-90 -95 0
-90 -100 0
-95 -100 0
1 26 51 76 0
-1 -26 0
-1 -51 0
-1 -76 0
-26 -51 0
-26 -76 0
-51 -76 0
6 31 56 81 0
-6 -31 0
-6 -56 0
-6 -81 0
-31 -56 0
-31 -81 0
-56 -81 0
11 36 61 86 0
-11 -36 0
-11 -61 0
-11 -86 0
-36 -61 0
-36 -86 0
-61 -86 0
16 41 66 91 0
-16 -41 0
-16 -66 0
-16 -91 0
-41 -66 0
-41 -91 0
-66 -91 0
21 46 71 96 0
-21 -46 0
-21 -71 0
-21 -96 0
-46 -71 0
-46 -96 0
-71 -96 0
2 27 52 77 0
-2 -27 0
-2 -52 0
-2 -77 0
-27 -52 0
-27 -77 0
-52 -77 0
7 32 57 82 0
-7 -32 0
-7 -57 0
-7 -82 0
-32 -57 0
-32 -82 0
-57 -82 0
12 37 62 87 0
-12 -37 0
-12 -62 0
-12 -87 0
-37 -62 0
-37 -87 0
-62 -87 0
17 42 67 92 0
-17 -42 0
-17 -67 0
-17 -92 0
-42 -67 0
-42 -92 0
-67 -92 0
22 47 72 97 0
-22 -47 0
-22 -72 0
-22 -97 0
-47 -72 0
-47 -97 0
-72 -97 0
3 28 53 78 0
-3 -28 0
-3 -53 0
-3 -78 0
-28 -53 0
-28 -78 0
-53 -78 0
8 33 58 83 0
-8 -33 0
-8 -58 0
-8 -83 0
-33 -58 0
-33 -83 0
-58 -83 0
13 38 63 88 0
-13 -38 0
-13 -63 0
-13 -88 0
-38 -63 0
-38 -88 0
-63 -88 0
18 43 68 93 0
-18 -43 0
-18 -68 0
-18 -93 0
-43 -68 0
-43 -93 0
-68 -93 0
23 48 73 98 0
-23 -48 0
-23 -73 0
-23 -98 0
-48 -73 0
-48 -98 0
-73 -98 0
4 29 54 79 0
-4 -29 0
-4 -54 0
-4 -79 0
-29 -54 0
-29 -79 0
-54 -79 0
9 34 59 84 0
-9 -34 0
-9 -59 0
-9 -84 0
-34 -59 0
-34 -84 0
-59 -84 0
14 39 64 89 0
-14 -39 0
-14 -64 0
-14 -89 0
-39 -64 0
-39 -89 0
-64 -89 0
19 44 69 94 0
-19 -44 0
-19 -69 0
-19 -94 0
-44 -69 0
-44 -94 0
-69 -94 0
24 49 74 99 0
-24 -49 0
-24 -74 0
-24 -99 0
-49 -74 0
-49 -99 0
-74 -99 0
5 30 55 80 0
-5 -30 0
-5 -55 0
-5 -80 0
-30 -55 0
-30 -80 0
-55 -80 0
10 35 60 85 0
-10 -35 0
-10 -60 0
-10 -85 0
-35 -60 0
-35 -85 0
-60 -85 0
15 40 65 90 0
-15 -40 0
-15 -65 0
-15 -90 0
-40 -65 0
-40 -90 0
-65 -90 0
20 45 70 95 0
-20 -45 0
-20 -70 0
-20 -95 0
-45 -70 0
-45 -95 0
-70 -95 0
25 50 75 100 0
-25 -50 0
-25 -75 0
-25 -100 0
-50 -75 0
-50 -100 0
-75 -100 0
